500
    1    45    45
    2    49    49
    3    43    43
    4    46    46
    5    17    17
    6    29    29
    7    50    50
    8    15    15
    9    41    41
   10    23    23
   11    41    41
   12     2     2
   13    20    20
   14    49    49
   15    31    31
   16     1     1
   17    46    46
   18    46    46
   19     9     9
   20     4     4
   21     7     7
   22     4     4
   23    50    50
   24    20    20
   25    43    43
   26     8     8
   27    11    11
   28    27    27
   29     6     6
   30    48    48
   31     4     4
   32    17    17
   33    10    10
   34    11    11
   35    25    25
   36    15    15
   37     8     8
   38    20    20
   39     7     7
   40    29    29
   41    14    14
   42    41    41
   43    13    13
   44     4     4
   45     1     1
   46     1     1
   47    46    46
   48    43    43
   49    50    50
   50    46    46
   51    21    21
   52    44    44
   53    45    45
   54    23    23
   55    17    17
   56    21    21
   57    39    39
   58    13    13
   59     4     4
   60    44    44
   61    45    45
   62    36    36
   63    41    41
   64     5     5
   65    25    25
   66     5     5
   67    14    14
   68    12    12
   69    45    45
   70    41    41
   71    12    12
   72    20    20
   73    49    49
   74    50    50
   75    18    18
   76    50    50
   77    37    37
   78    14    14
   79    26    26
   80    47    47
   81    16    16
   82    13    13
   83    23    23
   84    45    45
   85    47    47
   86    39    39
   87     9     9
   88    48    48
   89    16    16
   90     4     4
   91    44    44
   92    18    18
   93    45    45
   94     8     8
   95    29    29
   96    34    34
   97    16    16
   98    28    28
   99     7     7
  100    27    27
  101    42    42
  102    50    50
  103    47    47
  104    30    30
  105    34    34
  106    24    24
  107     5     5
  108     6     6
  109    20    20
  110     3     3
  111     7     7
  112    19    19
  113    44    44
  114    24    24
  115    48    48
  116    29    29
  117     9     9
  118    19    19
  119    39    39
  120    36    36
  121    48    48
  122    45    45
  123    32    32
  124    35    35
  125    45    45
  126    21    21
  127    18    18
  128    39    39
  129     9     9
  130    12    12
  131    19    19
  132    34    34
  133     2     2
  134    16    16
  135    18    18
  136    11    11
  137    17    17
  138    20    20
  139    11    11
  140    15    15
  141    19    19
  142    28    28
  143    19    19
  144     4     4
  145     3     3
  146    20    20
  147    40    40
  148    29    29
  149    17    17
  150    50    50
  151    36    36
  152    37    37
  153    10    10
  154    35    35
  155     6     6
  156    22    22
  157    40    40
  158    13    13
  159    20    20
  160    21    21
  161    27    27
  162    26    26
  163    39    39
  164    29    29
  165    22    22
  166     3     3
  167     5     5
  168    37    37
  169     5     5
  170    14    14
  171    29    29
  172    32    32
  173    29    29
  174    23    23
  175    31    31
  176    38    38
  177     7     7
  178    43    43
  179     6     6
  180    50    50
  181    12    12
  182    27    27
  183    46    46
  184     5     5
  185    16    16
  186    37    37
  187    15    15
  188    12    12
  189    15    15
  190    15    15
  191    26    26
  192    22    22
  193    18    18
  194    28    28
  195    48    48
  196    19    19
  197    43    43
  198    38    38
  199     5     5
  200    46    46
  201    12    12
  202    32    32
  203    17    17
  204    15    15
  205     5     5
  206    36    36
  207    37    37
  208     3     3
  209    26    26
  210     6     6
  211     3     3
  212    22    22
  213    26    26
  214     5     5
  215    50    50
  216    42    42
  217    28    28
  218    19    19
  219    48    48
  220    12    12
  221    34    34
  222     3     3
  223    46    46
  224    23    23
  225    42    42
  226    49    49
  227    34    34
  228    45    45
  229    12    12
  230    37    37
  231    20    20
  232    20    20
  233    12    12
  234    22    22
  235     6     6
  236    22    22
  237    48    48
  238    11    11
  239    12    12
  240    10    10
  241    25    25
  242    39    39
  243    32    32
  244    34    34
  245    33    33
  246     3     3
  247    48    48
  248    18    18
  249     4     4
  250     3     3
  251    30    30
  252    48    48
  253    23    23
  254    24    24
  255    47    47
  256     1     1
  257    26    26
  258    15    15
  259    10    10
  260    24    24
  261    47    47
  262    14    14
  263    28    28
  264    46    46
  265    26    26
  266    11    11
  267    17    17
  268    12    12
  269    20    20
  270    31    31
  271    41    41
  272    15    15
  273    26    26
  274    22    22
  275     6     6
  276     5     5
  277    23    23
  278    10    10
  279    29    29
  280    29    29
  281    26    26
  282    27    27
  283    12    12
  284    12    12
  285     8     8
  286    43    43
  287    18    18
  288    23    23
  289    24    24
  290    25    25
  291    49    49
  292    16    16
  293     3     3
  294    26    26
  295    24    24
  296     2     2
  297     6     6
  298    38    38
  299    45    45
  300    44    44
  301    32    32
  302    34    34
  303    38    38
  304    10    10
  305     1     1
  306    23    23
  307    17    17
  308    29    29
  309    39    39
  310     4     4
  311    11    11
  312    37    37
  313    27    27
  314    47    47
  315    18    18
  316    32    32
  317     3     3
  318    25    25
  319     8     8
  320    32    32
  321    20    20
  322    44    44
  323    46    46
  324     7     7
  325    13    13
  326    23    23
  327    21    21
  328    44    44
  329    34    34
  330    44    44
  331    45    45
  332    28    28
  333     6     6
  334     8     8
  335    21    21
  336    47    47
  337    37    37
  338    35    35
  339    10    10
  340    30    30
  341    36    36
  342    14    14
  343    43    43
  344    21    21
  345    18    18
  346    23    23
  347    15    15
  348    15    15
  349    42    42
  350     8     8
  351    44    44
  352    31    31
  353     3     3
  354    50    50
  355    24    24
  356    19    19
  357    49    49
  358    33    33
  359    31    31
  360    20    20
  361    36    36
  362    44    44
  363    40    40
  364    47    47
  365    21    21
  366    12    12
  367    23    23
  368     4     4
  369    38    38
  370    24    24
  371    14    14
  372    17    17
  373     9     9
  374    50    50
  375    48    48
  376    35    35
  377    41    41
  378    41    41
  379    18    18
  380    32    32
  381    15    15
  382    12    12
  383    48    48
  384    13    13
  385    45    45
  386    23    23
  387     1     1
  388    47    47
  389    30    30
  390    37    37
  391    13    13
  392    41    41
  393    21    21
  394    10    10
  395    27    27
  396     5     5
  397     6     6
  398    10    10
  399    42    42
  400    17    17
  401    42    42
  402    21    21
  403     2     2
  404     1     1
  405    34    34
  406    25    25
  407    42    42
  408    27    27
  409    20    20
  410     3     3
  411    50    50
  412     2     2
  413     1     1
  414    16    16
  415    45    45
  416    19    19
  417    22    22
  418    13    13
  419    46    46
  420    46    46
  421     7     7
  422     6     6
  423    39    39
  424    46    46
  425    50    50
  426    32    32
  427    42    42
  428     4     4
  429    13    13
  430    39    39
  431    38    38
  432     4     4
  433    29    29
  434    10    10
  435    13    13
  436    36    36
  437    30    30
  438    45    45
  439    43    43
  440    28    28
  441    23    23
  442    29    29
  443    40    40
  444    16    16
  445    50    50
  446    17    17
  447     3     3
  448    28    28
  449    15    15
  450    48    48
  451    15    15
  452    25    25
  453    12    12
  454    41    41
  455    26    26
  456    37    37
  457     8     8
  458    48    48
  459    14    14
  460    50    50
  461    18    18
  462    45    45
  463    33    33
  464    14    14
  465     2     2
  466    41    41
  467    35    35
  468    49    49
  469    42    42
  470    41    41
  471     3     3
  472     4     4
  473    36    36
  474    50    50
  475    42    42
  476    32    32
  477    20    20
  478    11    11
  479     8     8
  480    34    34
  481    12    12
  482    44    44
  483    12    12
  484    30    30
  485    12    12
  486    49    49
  487    50    50
  488    25    25
  489    17    17
  490    39    39
  491    30    30
  492    37    37
  493    39    39
  494    49    49
  495    17    17
  496    16    16
  497    29    29
  498     8     8
  499    21    21
  500    37    37
8518
